50
500
395
384
381
371
370
360
356
350
346
327
317
310
304
282
276
276
274
267
267
264
263
261
257
242
241
226
217
215
209
207
191
188
184
182
179
173
167
160
156
142
141
139
138
128
123
88
87
74
65
56
